rectOffsets = 
    [|0,0,3,11|0,0,11,3|0,0,3,13|0,0,13,3|0,0,2,9|0,0,9,2|0,0,2,7|0,0,7,2|0,0,3,9|0,0,9,3|0,0,3,7|0,0,7,3|0,0,2,11|0,0,11,2|0,0,2,13|0,0,13,2|0,0,4,11|0,0,11,4|0,0,4,13|0,0,13,4|0,0,5,3|0,0,3,5|0,0,2,11|0,0,11,2|0,0,2,2|0,0,2,2|0,0,3,11|0,0,11,3|0,0,3,2|0,0,2,3|0,0,4,5|0,0,5,4|0,0,4,6|0,0,6,4|0,0,2,12|0,0,12,2|0,0,2,1|0,0,1,2|0,0,5,3|0,0,3,5|0,0,5,13|0,0,13,5|0,0,4,12|0,0,12,4|0,0,4,1|0,0,1,4|0,0,2,5|0,0,5,2|0,0,2,6|0,0,6,2|];

shape = array1d(1..50, [{1}, {2}, {3}, {4}, {5}, {6}, {7}, {8}, {9}, {10},
    {11}, {12}, {13}, {14}, {15}, {16}, {17}, {18}, {19}, {20}, {21},
    {22}, {23}, {24}, {25}, {26}, {27}, {28}, {29}, {30}, {31}, {32},
    {33}, {34}, {35}, {36}, {37}, {38}, {39}, {40}, {41}, {42}, {43},
    {44}, {45}, {46}, {47}, {48}, {49}, {50}]);

validshapes = array1d(1..25, [{1,2}, {3,4}, {5,6}, {7,8}, {9,10}, {11,12}, {13,14},
    {15,16}, {17,18}, {19,20}, {21,22}, {23,24}, {25,26}, {27,28},
    {29,30}, {31,32}, {33,34}, {35,36}, {37,38}, {39,40}, {41,42},
    {43,44}, {45,46}, {47,48}, {49,50}]);

dx = array1d(1..25, [3, 3, 2, 2, 3, 3, 2, 2, 4, 4, 5, 2, 2, 3, 3, 4, 4, 2,
    2, 5, 5, 4, 4, 2, 2]);

dy = array1d(1..25, [11, 13, 9, 7, 9, 7, 11, 13, 11, 13, 3, 11, 2, 11, 2,
    5, 6, 12, 1, 3, 13, 12, 1, 5, 6]);

w = 15;

n = 25;

o = 50;

